(declare-const |x':47| Int)
(declare-const |y':48| Int)
(declare-const |phi_y:7:46| Int)
(declare-const |K:52| Int)
(assert (and (or (not (<= (- |K:52|) 0)) (= (+ |x':47| (- |K:52|)) 0))
               (or (not (<= (- |K:52|) 0)) (<= (+ |y':48| (- |K:52|)) 0))
               (or (not (<= (- |K:52|) 0)) (<= (+ (- |y':48|) (- |K:52|)) 0))
               (or (not (<= (- |K:52|) 0))
                     (<= (+ (* -50 |y':48|) (- (* |K:52| |K:52|))
                              (* 51 |K:52|)) 0))
               (or (and (= |K:52| 0) (= (- |y':48|) 0) (= (- |x':47|) 0))
                     (and (<= (+ (- |K:52|) 1) 0) (<= (+ (- |x':47|) 1) 0)
                            (<= (- |y':48|) 0)
                            (<= (+ (* -50 |y':48|) (- |x':47|) 51) 0)))
               (<= (- |K:52|) 0) (<= (- |x':47|) 0) (<= (- |y':48|) 0)
               (or (and (<= (+ (- |x':47|) 50) 0)
                          (= (+ (- |phi_y:7:46|) |y':48| -1) 0))
                     (and (< (+ |x':47| -50) 0)
                            (= (+ (- |phi_y:7:46|) |y':48| 1) 0)))
               (< |phi_y:7:46| 0) (not (= (+ |x':47| -100) 0))))
(check-sat)
